nK = 899;
nT = 4;
nI = 7;
L = 29;
TT = 191;
np = 1;
nc = 3;
b = [21, 34, 68, 56, 26, 21, 55];
d = [122, 119, 108, 115, 41, 108, 142];
m = [2, 1.9, 2.1, 2.3, 2.3, 1, 2.4];
pt = [0.24, 0.27, 0.23, 0.2];
st = [10.8, 14.58, 12.19, 11.2];
arc = {<1, 0, 1, 1, 0, 0, 0, [1, 1, 1, 1]>, <2, 1, 2, 1, 0, 0, 0, [1, 1, 1, 1]>, <3, 2, 3, 1, 0, 0, 0, [1, 1, 1, 1]>, <4, 3, 4, 1, 0, 0, 0, [1, 1, 1, 1]>, <5, 4, 5, 1, 0, 0, 0, [1, 1, 1, 1]>, <6, 5, 6, 1, 0, 0, 0, [1, 1, 1, 1]>, <7, 6, 7, 1, 0, 0, 0, [1, 1, 1, 1]>, <8, 7, 8, 1, 0, 0, 0, [1, 1, 1, 1]>, <9, 8, 9, 1, 0, 0, 0, [1, 1, 1, 1]>, <10, 9, 10, 1, 0, 0, 0, [1, 1, 1, 1]>, <11, 10, 11, 1, 0, 0, 0, [1, 1, 1, 1]>, <12, 11, 12, 1, 0, 0, 0, [1, 1, 1, 1]>, <13, 12, 13, 1, 0, 0, 0, [1, 1, 1, 1]>, <14, 13, 14, 1, 0, 0, 0, [1, 1, 1, 1]>, <15, 14, 15, 1, 0, 0, 0, [1, 1, 1, 1]>, <16, 15, 16, 1, 0, 0, 0, [1, 1, 1, 1]>, <17, 16, 17, 1, 0, 0, 0, [1, 1, 1, 1]>, <18, 17, 18, 1, 0, 0, 0, [1, 1, 1, 1]>, <19, 18, 19, 1, 0, 0, 0, [1, 1, 1, 1]>, <20, 19, 20, 1, 0, 0, 0, [1, 1, 1, 1]>, <21, 20, 21, 1, 0, 0, 0, [1, 1, 1, 1]>, <22, 21, 22, 1, 0, 0, 0, [1, 1, 1, 1]>, <23, 22, 23, 1, 0, 0, 0, [1, 1, 1, 1]>, <24, 23, 24, 1, 0, 0, 0, [1, 1, 1, 1]>, <25, 24, 25, 1, 0, 0, 0, [1, 1, 1, 1]>, <26, 25, 26, 1, 0, 0, 0, [1, 1, 1, 1]>, <27, 26, 27, 1, 0, 0, 0, [1, 1, 1, 1]>, <28, 27, 28, 1, 0, 0, 0, [1, 1, 1, 1]>, <29, 28, 29, 1, 0, 0, 0, [1, 1, 1, 1]>, <30, 0, 13, 13, 1, 0, 0, [0, 1, 1, 0]>, <31, 1, 14, 13, 1, 0, 0, [0, 1, 1, 0]>, <32, 2, 15, 13, 1, 0, 0, [0, 1, 1, 0]>, <33, 3, 16, 13, 1, 0, 0, [0, 1, 1, 0]>, <34, 4, 17, 13, 1, 0, 0, [0, 1, 1, 0]>, <35, 5, 18, 13, 1, 0, 0, [0, 1, 1, 0]>, <36, 7, 20, 13, 1, 0, 0, [0, 1, 1, 0]>, <37, 8, 21, 13, 1, 0, 0, [0, 1, 1, 0]>, <38, 9, 22, 13, 1, 0, 0, [0, 1, 1, 0]>, <39, 10, 23, 13, 1, 0, 0, [0, 1, 1, 0]>, <40, 11, 24, 13, 1, 0, 0, [0, 1, 1, 0]>, <41, 12, 25, 13, 1, 0, 0, [0, 1, 1, 0]>, <42, 13, 26, 13, 1, 0, 0, [0, 1, 1, 0]>, <43, 14, 27, 13, 1, 0, 0, [0, 1, 1, 0]>, <44, 15, 28, 13, 1, 0, 0, [0, 1, 1, 0]>, <45, 16, 29, 13, 1, 0, 0, [0, 1, 1, 0]>, <46, 1, 12, 11, 2, 0, 0, [1, 0, 0, 1]>, <47, 2, 13, 11, 2, 0, 0, [1, 0, 0, 1]>, <48, 3, 14, 11, 2, 0, 0, [1, 0, 0, 1]>, <49, 4, 15, 11, 2, 0, 0, [1, 0, 0, 1]>, <50, 5, 16, 11, 2, 0, 0, [1, 0, 0, 1]>, <51, 9, 20, 11, 2, 0, 0, [1, 0, 0, 1]>, <52, 10, 21, 11, 2, 0, 0, [1, 0, 0, 1]>, <53, 11, 22, 11, 2, 0, 0, [1, 0, 0, 1]>, <54, 12, 23, 11, 2, 0, 0, [1, 0, 0, 1]>, <55, 13, 24, 11, 2, 0, 0, [1, 0, 0, 1]>, <56, 14, 25, 11, 2, 0, 0, [1, 0, 0, 1]>, <57, 15, 26, 11, 2, 0, 0, [1, 0, 0, 1]>, <58, 16, 27, 11, 2, 0, 0, [1, 0, 0, 1]>, <59, 17, 28, 11, 2, 0, 0, [1, 0, 0, 1]>, <60, 18, 29, 11, 2, 0, 0, [1, 0, 0, 1]>, <61, 0, 14, 14, 3, 0, 0, [1, 0, 0, 1]>, <62, 1, 15, 14, 3, 0, 0, [1, 0, 0, 1]>, <63, 2, 16, 14, 3, 0, 0, [1, 0, 0, 1]>, <64, 3, 17, 14, 3, 0, 0, [1, 0, 0, 1]>, <65, 4, 18, 14, 3, 0, 0, [1, 0, 0, 1]>, <66, 5, 19, 14, 3, 0, 0, [1, 0, 0, 1]>, <67, 6, 20, 14, 3, 0, 0, [1, 0, 0, 1]>, <68, 7, 21, 14, 3, 0, 0, [1, 0, 0, 1]>, <69, 8, 22, 14, 3, 0, 0, [1, 0, 0, 1]>, <70, 9, 23, 14, 3, 0, 0, [1, 0, 0, 1]>, <71, 10, 24, 14, 3, 0, 0, [1, 0, 0, 1]>, <72, 11, 25, 14, 3, 0, 0, [1, 0, 0, 1]>, <73, 12, 26, 14, 3, 0, 0, [1, 0, 0, 1]>, <74, 13, 27, 14, 3, 0, 0, [1, 0, 0, 1]>, <75, 14, 28, 14, 3, 0, 0, [1, 0, 0, 1]>, <76, 15, 29, 14, 3, 0, 0, [1, 0, 0, 1]>, <77, 2, 12, 10, 4, 0, 0, [0, 0, 1, 1]>, <78, 3, 13, 10, 4, 0, 0, [0, 0, 1, 1]>, <79, 4, 14, 10, 4, 0, 0, [0, 0, 1, 1]>, <80, 5, 15, 10, 4, 0, 0, [0, 0, 1, 1]>, <81, 10, 20, 10, 4, 0, 0, [0, 0, 1, 1]>, <82, 11, 21, 10, 4, 0, 0, [0, 0, 1, 1]>, <83, 12, 22, 10, 4, 0, 0, [0, 0, 1, 1]>, <84, 14, 24, 10, 4, 0, 0, [0, 0, 1, 1]>, <85, 15, 25, 10, 4, 0, 0, [0, 0, 1, 1]>, <86, 16, 26, 10, 4, 0, 0, [0, 0, 1, 1]>, <87, 17, 27, 10, 4, 0, 0, [0, 0, 1, 1]>, <88, 18, 28, 10, 4, 0, 0, [0, 0, 1, 1]>, <89, 19, 29, 10, 4, 0, 0, [0, 0, 1, 1]>, <90, 0, 12, 12, 5, 0, 0, [0, 0, 1, 1]>, <91, 1, 13, 12, 5, 0, 0, [0, 0, 1, 1]>, <92, 2, 14, 12, 5, 0, 0, [0, 0, 1, 1]>, <93, 3, 15, 12, 5, 0, 0, [0, 0, 1, 1]>, <94, 4, 16, 12, 5, 0, 0, [0, 0, 1, 1]>, <95, 5, 17, 12, 5, 0, 0, [0, 0, 1, 1]>, <96, 8, 20, 12, 5, 0, 0, [0, 0, 1, 1]>, <97, 9, 21, 12, 5, 0, 0, [0, 0, 1, 1]>, <98, 10, 22, 12, 5, 0, 0, [0, 0, 1, 1]>, <99, 11, 23, 12, 5, 0, 0, [0, 0, 1, 1]>, <100, 12, 24, 12, 5, 0, 0, [0, 0, 1, 1]>, <101, 13, 25, 12, 5, 0, 0, [0, 0, 1, 1]>, <102, 14, 26, 12, 5, 0, 0, [0, 0, 1, 1]>, <103, 15, 27, 12, 5, 0, 0, [0, 0, 1, 1]>, <104, 16, 28, 12, 5, 0, 0, [0, 0, 1, 1]>, <105, 17, 29, 12, 5, 0, 0, [0, 0, 1, 1]>, <106, 0, 13, 13, 6, 0, 0, [1, 1, 0, 0]>, <107, 1, 14, 13, 6, 0, 0, [1, 1, 0, 0]>, <108, 2, 15, 13, 6, 0, 0, [1, 1, 0, 0]>, <109, 3, 16, 13, 6, 0, 0, [1, 1, 0, 0]>, <110, 4, 17, 13, 6, 0, 0, [1, 1, 0, 0]>, <111, 5, 18, 13, 6, 0, 0, [1, 1, 0, 0]>, <112, 7, 20, 13, 6, 0, 0, [1, 1, 0, 0]>, <113, 8, 21, 13, 6, 0, 0, [1, 1, 0, 0]>, <114, 9, 22, 13, 6, 0, 0, [1, 1, 0, 0]>, <115, 10, 23, 13, 6, 0, 0, [1, 1, 0, 0]>, <116, 11, 24, 13, 6, 0, 0, [1, 1, 0, 0]>, <117, 12, 25, 13, 6, 0, 0, [1, 1, 0, 0]>, <118, 13, 26, 13, 6, 0, 0, [1, 1, 0, 0]>, <119, 14, 27, 13, 6, 0, 0, [1, 1, 0, 0]>, <120, 15, 28, 13, 6, 0, 0, [1, 1, 0, 0]>, <121, 16, 29, 13, 6, 0, 0, [1, 1, 0, 0]>, <122, 0, 13, 13, 7, 0, 1, [0, 1, 1, 0]>, <123, 1, 14, 13, 7, 0, 1, [0, 1, 1, 0]>, <124, 2, 15, 13, 7, 0, 1, [0, 1, 1, 0]>, <125, 3, 16, 13, 7, 0, 1, [0, 1, 1, 0]>, <126, 4, 17, 13, 7, 0, 1, [0, 1, 1, 0]>, <127, 5, 18, 13, 7, 0, 1, [0, 1, 1, 0]>, <128, 7, 20, 13, 7, 0, 1, [0, 1, 1, 0]>, <129, 8, 21, 13, 7, 0, 1, [0, 1, 1, 0]>, <130, 9, 22, 13, 7, 0, 1, [0, 1, 1, 0]>, <131, 10, 23, 13, 7, 0, 1, [0, 1, 1, 0]>, <132, 11, 24, 13, 7, 0, 1, [0, 1, 1, 0]>, <133, 12, 25, 13, 7, 0, 1, [0, 1, 1, 0]>, <134, 13, 26, 13, 7, 0, 1, [0, 1, 1, 0]>, <135, 14, 27, 13, 7, 0, 1, [0, 1, 1, 0]>, <136, 15, 28, 13, 7, 0, 1, [0, 1, 1, 0]>, <137, 16, 29, 13, 7, 0, 1, [0, 1, 1, 0]>};
